objective value:                 0.000774992045000006
x_1_1                                               1 	(obj:0)
x_2_2                                               1 	(obj:0)
x_3_4                                               1 	(obj:0)
x_4_1                                               1 	(obj:0)
x_5_1                                               1 	(obj:0)
x_6_2                                               1 	(obj:0)
x_7_2                                               1 	(obj:0)
x_8_4                                               1 	(obj:0)
x_9_1                                               1 	(obj:0)
x_10_1                                              1 	(obj:0)
x_11_4                                              1 	(obj:0)
x_12_4                                              1 	(obj:0)
x_13_2                                              1 	(obj:0)
x_14_2                                              1 	(obj:0)
x_15_1                                              1 	(obj:0)
x_16_4                                              1 	(obj:0)
x_17_2                                              1 	(obj:0)
x_18_2                                              1 	(obj:0)
x_19_4                                              1 	(obj:0)
x_20_4                                              1 	(obj:0)
ind_1                                               1 	(obj:0)
abs_1_2                                             1 	(obj:0)
ind_2                                               1 	(obj:0)
abs_2_4                                             1 	(obj:0)
ind_4                                               1 	(obj:0)
abs_4_1                                             1 	(obj:0)
epsI                             0.000774992045000006 	(obj:1)
SCIP Status        : solving was interrupted [node limit reached]
Total Time         :       2.29
  solving          :       2.29
  presolving       :       0.07 (included in solving)
  reading          :       0.00
  copying          :       0.00 (1 #copies) (minimal 0.00, maximal 0.00, average 0.00)
Original Problem   :
  Problem name     : ../instances/Pot4/Pot4_T_20B_alpha=13.txt.spa
  Variables        : 101 (100 binary, 0 integer, 0 implicit integer, 1 continuous)
  Constraints      : 193 initial, 193 maximal
  Objective sense  : maximize
Presolved Problem  :
  Problem name     : t_../instances/Pot4/Pot4_T_20B_alpha=13.txt.spa
  Variables        : 590 (92 binary, 0 integer, 16 implicit integer, 482 continuous)
  Constraints      : 2015 initial, 2026 maximal
Presolvers         :   ExecTime  SetupTime  Calls  FixedVars   AggrVars   ChgTypes  ChgBounds   AddHoles    DelCons    AddCons   ChgSides   ChgCoefs
  boundshift       :       0.00       0.00      0          0          0          0          0          0          0          0          0          0
  components       :       0.00       0.00      1          0          0          0          0          0          0          0          0          0
  convertinttobin  :       0.00       0.00      0          0          0          0          0          0          0          0          0          0
  domcol           :       0.00       0.00      1          0          0          0          0          0          0          0          0          0
  dualagg          :       0.00       0.00      0          0          0          0          0          0          0          0          0          0
  dualinfer        :       0.00       0.00      0          0          0          0          0          0          0          0          0          0
  gateextraction   :       0.00       0.00      3          0          0          0          0          0        108         34          0          0
  implfree         :       0.00       0.00      0          0          0          0          0          0          0          0          0          0
  implics          :       0.00       0.00      4          0          0          0          0          0          0          0          0          0
  inttobinary      :       0.00       0.00      0          0          0          0          0          0          0          0          0          0
  redvub           :       0.00       0.00      0          0          0          0          0          0          0          0          0          0
  stuffing         :       0.00       0.00      1          0          0          0          0          0          0          0          0          0
  trivial          :       0.00       0.00      7          0          0          0          0          0          0          0          0          0
  tworowbnd        :       0.00       0.00      0          0          0          0          0          0          0          0          0          0
  dualfix          :       0.00       0.00      7          4          0          0          0          0          0          0          0          0
  genvbounds       :       0.00       0.00      0          0          0          0          0          0          0          0          0          0
  probing          :       0.04       0.00      1          0          0          0          4          0          0          0          0          0
  pseudoobj        :       0.00       0.00      0          0          0          0          0          0          0          0          0          0
  varbound         :       0.00       0.00      9          0          0          0          0          0         28         28          0          0
  setppc           :       0.01       0.00     12          0          0          0          0          0          0          0          0          0
  and              :       0.00       0.00      4          0         12          0          0          0         12          0          0          0
  linear           :       0.01       0.00      9          3          1          0          4          0          7          0         12         12
  logicor          :       0.00       0.00      7          0          0          0          0          0          0          0          0          0
  bounddisjunction :       0.00       0.00      0          0          0          0          0          0          0          0          0          0
  quadratic        :       0.01       0.00      2          0          0          0          0          0          0       1915          0          0
  root node        :          -          -      -          1          -          -         57          -          -          -          -          -
Constraints        :     Number  MaxNumber  #Separate #Propagate    #EnfoLP    #EnfoPS     #Check   #ResProp    Cutoffs    DomReds       Cuts    Applied      Conss   Children
  integral         :          0          0          0          0        224          0         59          0          0       1430          0          0          4        158
  varbound         :        869        869         87       4860          4          0         10        317          9       1491          0          0          0          0
  setppc           :        110        110         87       4851          4          0          5        341         11        168          9          1          0          0
  and              :         22         22        126       3900          0          0          3         19          0         38         39          7          0          0
  linear           :        979        979         87       4840          4          0          1        195         31       2486        608        383          0          0
  logicor          :         35+        50         83       1083          0          0          0         10          7         11          1          1          0          0
  bounddisjunction :          0+        14          0        754          0          0          0          0          0          0          0          0          0          0
  countsols        :          0          0          0          0          0          0          9          0          0          0          0          0          0          0
Constraint Timings :  TotalTime  SetupTime   Separate  Propagate     EnfoLP     EnfoPS      Check    ResProp    SB-Prop
  integral         :       1.05       0.00       0.00       0.00       1.05       0.00       0.00       0.00       0.00
  varbound         :       0.02       0.00       0.00       0.01       0.00       0.00       0.00       0.00       0.01
  setppc           :       0.01       0.00       0.00       0.01       0.00       0.00       0.00       0.00       0.00
  and              :       0.00       0.00       0.00       0.00       0.00       0.00       0.00       0.00       0.00
  linear           :       0.16       0.00       0.01       0.11       0.00       0.00       0.00       0.00       0.04
  logicor          :       0.01       0.00       0.00       0.01       0.00       0.00       0.00       0.00       0.00
  bounddisjunction :       0.00       0.00       0.00       0.00       0.00       0.00       0.00       0.00       0.00
  countsols        :       0.00       0.00       0.00       0.00       0.00       0.00       0.00       0.00       0.00
Propagators        : #Propagate   #ResProp    Cutoffs    DomReds
  dualfix          :          2          0          0          0
  genvbounds       :          0          0          0          0
  obbt             :          0          0          0          0
  probing          :          0          0          0          0
  pseudoobj        :        835          0          0         56
  redcost          :        539          0          0          5
  rootredcost      :          1          0          0          0
  vbounds          :       4688          0          0          0
Propagator Timings :  TotalTime  SetupTime   Presolve  Propagate    ResProp    SB-Prop
  dualfix          :       0.00       0.00       0.00       0.00       0.00       0.00
  genvbounds       :       0.00       0.00       0.00       0.00       0.00       0.00
  obbt             :       0.00       0.00       0.00       0.00       0.00       0.00
  probing          :       0.04       0.00       0.04       0.00       0.00       0.00
  pseudoobj        :       0.00       0.00       0.00       0.00       0.00       0.00
  redcost          :       0.01       0.00       0.00       0.00       0.00       0.01
  rootredcost      :       0.00       0.00       0.00       0.00       0.00       0.00
  vbounds          :       0.00       0.00       0.00       0.00       0.00       0.00
Conflict Analysis  :       Time      Calls    Success    DomReds  Conflicts   Literals    Reconvs ReconvLits   LP Iters
  propagation      :       0.00         27         27          -        189       34.2          0        0.0          -
  infeasible LP    :       0.00          3          0          -          0        0.0          0        0.0          0
  bound exceed. LP :       0.00          0          0          -          0        0.0          0        0.0          0
  strong branching :       0.00          0          0          -          0        0.0          0        0.0          0
  pseudo solution  :       0.00          0          0          -          0        0.0          0        0.0          -
  applied globally :       0.00          -          -          0         34       13.2          -          -          -
  applied locally  :          -          -          -          0          1       37.0          -          -          -
Separators         :   ExecTime  SetupTime      Calls    Cutoffs    DomReds       Cuts    Applied      Conss
  cut pool         :       0.01                    86          -          -       1169          -          -    (maximal pool size: 754)
  cgmip            :       0.00       0.00          0          0          0          0          0          0
  clique           :       0.01       0.00         87          0          0         36         29          0
  closecuts        :       0.00       0.00          0          0          0          0          0          0
  cmir             :       0.03       0.00         10          0          0        200        173          0
  disjunctive      :       0.00       0.00          0          0          0          0          0          0
  eccuts           :       0.00       0.00          0          0          0          0          0          0
  flowcover        :       0.18       0.00         15          0          0        271         23          0
  gomory           :       0.01       0.00         10          0          0          3          3          0
  impliedbounds    :       0.02       0.00         87          0          0        659        155          0
  intobj           :       0.00       0.00          0          0          0          0          0          0
  mcf              :       0.00       0.00          1          0          0          0          0          0
  oddcycle         :       0.00       0.00          0          0          0          0          0          0
  rapidlearning    :       0.00       0.00          0          0          0          0          0          0
  strongcg         :       0.03       0.00         20          0          0         67         10          0
  zerohalf         :       0.00       0.00          0          0          0          0          0          0
Pricers            :   ExecTime  SetupTime      Calls       Vars
  problem variables:       0.00          -          0          0
Branching Rules    :   ExecTime  SetupTime   BranchLP  BranchExt   BranchPS    Cutoffs    DomReds       Cuts      Conss   Children
  allfullstrong    :       0.00       0.00          0          0          0          0          0          0          0          0
  cloud            :       0.00       0.00          0          0          0          0          0          0          0          0
  distribution     :       0.00       0.00          0          0          0          0          0          0          0          0
  fullstrong       :       0.00       0.00          0          0          0          0          0          0          0          0
  inference        :       0.00       0.00          0          0          0          0          0          0          0          0
  leastinf         :       0.00       0.00          0          0          0          0          0          0          0          0
  mostinf          :       0.00       0.00          0          0          0          0          0          0          0          0
  multaggr         :       0.00       0.00          0          0          0          0          0          0          0          0
  nodereopt        :       0.00       0.00          0          0          0          0          0          0          0          0
  pscost           :       0.00       0.00          0          0          0          0          0          0          0          0
  random           :       0.00       0.00          0          0          0          0          0          0          0          0
  relpscost        :       1.05       0.00        220          0          0          0       1430          0          4        158
Primal Heuristics  :   ExecTime  SetupTime      Calls      Found       Best
  LP solutions     :       0.00          -          -          0          -
  pseudo solutions :       0.00          -          -          0          -
  strong branching :       0.00          -          -          0          -
  SpaGreedy        :       0.00       0.00          8          2          1
  actconsdiving    :       0.00       0.00          0          0          0
  bound            :       0.00       0.00          0          0          0
  clique           :       0.00       0.00          0          0          0
  coefdiving       :       0.00       0.00          1          0          0
  crossover        :       0.00       0.00          0          0          0
  dins             :       0.00       0.00          0          0          0
  distributiondivin:       0.00       0.00          0          0          0
  dualval          :       0.00       0.00          0          0          0
  feaspump         :       0.03       0.00          1          0          0
  fixandinfer      :       0.00       0.00          0          0          0
  fracdiving       :       0.01       0.00          1          0          0
  guideddiving     :       0.00       0.00          0          0          0
  indicator        :       0.00       0.00          0          0          0
  intdiving        :       0.00       0.00          0          0          0
  intshifting      :       0.00       0.00          3          0          0
  linesearchdiving :       0.00       0.00          0          0          0
  localbranching   :       0.00       0.00          0          0          0
  mutation         :       0.00       0.00          0          0          0
  nlpdiving        :       0.00       0.00          0          0          0
  objpscostdiving  :       0.00       0.00          0          0          0
  octane           :       0.00       0.00          0          0          0
  ofins            :       0.00       0.00          0          0          0
  oneopt           :       0.00       0.00          0          0          0
  proximity        :       0.00       0.00          0          0          0
  pscostdiving     :       0.01       0.00          1          0          0
  randrounding     :       0.28       0.00         88          0          0
  rens             :       0.25       0.00          1          0          0
  reoptsols        :       0.00       0.00          0          0          0
  rins             :       0.00       0.00          0          0          0
  rootsoldiving    :       0.00       0.00          0          0          0
  rounding         :       0.00       0.00        163          0          0
  shiftandpropagate:       0.00       0.00          0          0          0
  shifting         :       0.02       0.00         93          0          0
  simplerounding   :       0.00       0.00          0          0          0
  subnlp           :       0.00       0.00          0          0          0
  trivial          :       0.00       0.00          2          0          0
  trivialnegation  :       0.00       0.00          0          0          0
  trysol           :       0.00       0.00          0          0          0
  twoopt           :       0.00       0.00          0          0          0
  undercover       :       0.00       0.00          1          0          0
  vbounds          :       0.00       0.00          0          0          0
  veclendiving     :       0.00       0.00          0          0          0
  zeroobj          :       0.00       0.00          0          0          0
  zirounding       :       0.01       0.00         78          0          0
  other solutions  :          -          -          -          0          -
Diving Statistics  :      Calls      Nodes   LP Iters Backtracks   MinDepth   MaxDepth   AvgDepth  NLeafSols  MinSolDpt  MaxSolDpt  AvgSolDpt
  actconsdiving    :          0          -          -          -          -          -          -          -          -          -          -
  coefdiving       :          1          4          9          1         21         21       21.0          -          -          -          -
  distributiondivin:          0          -          -          -          -          -          -          -          -          -          -
  fracdiving       :          1          6         39          1         25         25       25.0          -          -          -          -
  guideddiving     :          0          -          -          -          -          -          -          -          -          -          -
  linesearchdiving :          0          -          -          -          -          -          -          -          -          -          -
  pscostdiving     :          1         14        103          1         31         31       31.0          -          -          -          -
  veclendiving     :          0          -          -          -          -          -          -          -          -          -          -
LP                 :       Time      Calls Iterations  Iter/call   Iter/sec  Time-0-It Calls-0-It
  primal LP        :       0.00         13          0       0.00          -       0.00         13
  dual LP          :       0.23        389       6933      25.21   30143.48       0.00        114
  lex dual LP      :       0.00          0          0       0.00          -
  barrier LP       :       0.00          0          0       0.00          -       0.00          0
  diving/probing LP:       0.07         23       1480      64.35   21142.86
  strong branching :       0.85        305      24665      80.87   29017.65
    (at root node) :          -         23       2527     109.87          -
  conflict analysis:       0.00          0          0       0.00          -
B&B Tree           :
  number of runs   :          1
  nodes            :        100 (79 internal, 21 leaves)
  nodes (total)    :        100 (79 internal, 21 leaves)
  nodes left       :         59
  max depth        :         21
  max depth (total):         21
  backtracks       :         13 (13.0%)
  delayed cutoffs  :          0
  repropagations   :          2 (0 domain reductions, 0 cutoffs)
  avg switch length:       2.32
  switching time   :       0.01
Root Node          :
  First LP value   : +3.00000000000000e+00
  First LP Iters   :        372
  First LP Time    :       0.00
  Final Dual Bound : +7.03784545541519e-03
  Final Root Iters :       3559
Solution           :
  Solutions found  :          2 (1 improvements)
  First Solution   : +7.74992045000006e-04   (in run 1, after 1 nodes, 0.07 seconds, depth 0, found by <SpaGreedy>)
  Gap First Sol.   :   infinite
  Gap Last Sol.    :   infinite
  Primal Bound     : +7.74992045000006e-04   (in run 1, after 1 nodes, 0.07 seconds, depth 0, found by <SpaGreedy>)
  Dual Bound       : +6.49988303025081e-03
  Gap              :     738.70 %
  Avg. Gap         :      92.42 % (211.64 primal-dual integral)
